NAME : morphed22-2-23
COMMENT : Generated using the function morphInstances from the R-package netgen (Bossek,2015) - Number of clusters: 2 Alpha: 0.5
TYPE : TSP
DIMENSION : 22
EDGE_WEIGHT_TYPE : EUC_2D
NODE_COORD_SECTION
1 74.4495991594 10.7310268397
2 20.3717460762 72.2132291289
3 27.6037011152 48.171478413
4 53.1975634438 73.3703139816
5 62.0856033387 63.6499631536
6 33.3794475127 76.7544318305
7 97.4111492831 13.5787617931
8 97.8004887064 53.3775781963
9 86.9838323159 43.4017844997
10 99.4929173995 22.1656918078
11 88.3904873841 26.6316463521
12 76.4144732494 32.4309710937
13 38.086576904 42.9861859245
14 25.9434683821 73.4966105012
15 86.9682382916 23.3228046327
16 16.3204456144 82.4694932709
17 47.599183443 88.2213477048
18 75.0578012623 14.3125800457
19 95.273278868 50.2730427139
20 79.3940940006 5.4932417996
21 50.046419904 40.8166812689
22 26.3447827593 64.1150552333
EOF
